Running for instance ./models/r210.txt
Generating routes...
Execution time:  0.123999833333  minutes
Academic license - for non-commercial use only
Warning: constraint name "Cliente esta na rota" has a space
Optimize a model with 26 rows, 5000 columns and 41630 nonzeros
Variable types: 0 continuous, 5000 integer (0 binary)
Coefficient statistics:
  Matrix range     [1e+00, 1e+00]
  Objective range  [4e+01, 4e+02]
  Bounds range     [1e+00, 1e+00]
  RHS range        [1e+00, 2e+01]
Found heuristic solution: objective 1490.9522448
Presolve removed 0 rows and 420 columns
Presolve time: 0.04s
Presolved: 26 rows, 4580 columns, 38904 nonzeros
Variable types: 0 continuous, 4580 integer (4580 binary)

Root relaxation: objective 5.302034e+02, 78 iterations, 0.01 seconds

    Nodes    |    Current Node    |     Objective Bounds      |     Work
 Expl Unexpl |  Obj  Depth IntInf | Incumbent    BestBd   Gap | It/Node Time

     0     0  530.20338    0   22 1490.95224  530.20338  64.4%     -    0s
H    0     0                     723.2416586  530.20338  26.7%     -    0s
H    0     0                     584.3550692  530.20338  9.27%     -    0s
     0     0  534.30244    0   26  584.35507  534.30244  8.57%     -    0s
     0     0  534.30244    0   22  584.35507  534.30244  8.57%     -    0s
     0     0  534.39287    0   26  584.35507  534.39287  8.55%     -    0s
H    0     0                     573.0654482  534.39287  6.75%     -    0s
H    0     0                     569.1087297  534.39287  6.10%     -    0s
H    0     0                     565.3725416  534.39287  5.48%     -    0s
     0     0  565.25574    0   27  565.37254  565.25574  0.02%     -    0s
     0     0  565.25574    0   25  565.37254  565.25574  0.02%     -    0s
     0     0  565.25574    0   26  565.37254  565.25574  0.02%     -    0s
     0     0  565.25574    0   27  565.37254  565.25574  0.02%     -    0s
     0     0  565.25574    0   29  565.37254  565.25574  0.02%     -    0s
     0     0  565.25574    0   30  565.37254  565.25574  0.02%     -    0s
     0     0  565.25574    0   33  565.37254  565.25574  0.02%     -    0s
     0     0  565.25574    0   22  565.37254  565.25574  0.02%     -    0s
     0     0  565.25574    0   26  565.37254  565.25574  0.02%     -    0s
     0     0  565.25574    0   26  565.37254  565.25574  0.02%     -    0s
     0     0  565.25574    0   26  565.37254  565.25574  0.02%     -    0s
     0     0  565.25574    0   30  565.37254  565.25574  0.02%     -    0s
     0     0  565.25574    0   31  565.37254  565.25574  0.02%     -    0s
     0     0  565.25574    0   31  565.37254  565.25574  0.02%     -    0s
     0     0  565.25574    0   32  565.37254  565.25574  0.02%     -    0s
     0     0  565.25574    0   35  565.37254  565.25574  0.02%     -    0s
     0     0  565.25574    0   35  565.37254  565.25574  0.02%     -    0s
     0     0  565.25574    0   36  565.37254  565.25574  0.02%     -    0s
     0     0  565.25574    0   36  565.37254  565.25574  0.02%     -    0s
     0     0  565.25574    0   37  565.37254  565.25574  0.02%     -    0s
     0     0  565.25574    0   36  565.37254  565.25574  0.02%     -    0s
     0     0  565.25574    0   38  565.37254  565.25574  0.02%     -    0s
     0     0  565.25574    0   38  565.37254  565.25574  0.02%     -    0s
     0     0  565.25574    0   38  565.37254  565.25574  0.02%     -    0s
     0     0  565.25574    0   22  565.37254  565.25574  0.02%     -    0s
     0     0  565.25574    0   29  565.37254  565.25574  0.02%     -    0s
     0     0  565.25574    0   33  565.37254  565.25574  0.02%     -    0s
     0     0  565.25574    0   31  565.37254  565.25574  0.02%     -    0s
     0     0  565.25574    0   34  565.37254  565.25574  0.02%     -    0s
     0     0  565.25574    0   36  565.37254  565.25574  0.02%     -    0s
     0     0  565.25574    0   30  565.37254  565.25574  0.02%     -    0s
     0     0  565.25574    0   39  565.37254  565.25574  0.02%     -    0s
     0     0  565.25574    0   39  565.37254  565.25574  0.02%     -    0s
     0     0  565.25574    0   41  565.37254  565.25574  0.02%     -    0s
     0     0  565.25574    0   43  565.37254  565.25574  0.02%     -    0s
     0     0  565.25574    0   43  565.37254  565.25574  0.02%     -    0s
     0     0  565.25574    0   43  565.37254  565.25574  0.02%     -    0s
     0     0  565.25574    0   45  565.37254  565.25574  0.02%     -    0s
     0     0  565.25574    0   46  565.37254  565.25574  0.02%     -    0s
     0     0  565.25574    0   44  565.37254  565.25574  0.02%     -    0s
     0     0  565.25574    0   45  565.37254  565.25574  0.02%     -    0s
     0     0  565.25574    0   45  565.37254  565.25574  0.02%     -    0s
     0     0  565.25574    0   45  565.37254  565.25574  0.02%     -    0s
     0     0  565.25574    0   22  565.37254  565.25574  0.02%     -    0s
     0     0  565.25574    0   27  565.37254  565.25574  0.02%     -    0s
     0     0  565.25574    0   28  565.37254  565.25574  0.02%     -    0s
     0     0  565.25574    0   29  565.37254  565.25574  0.02%     -    0s
     0     0  565.25574    0   34  565.37254  565.25574  0.02%     -    0s
     0     0  565.25574    0   34  565.37254  565.25574  0.02%     -    0s
     0     0  565.25574    0   33  565.37254  565.25574  0.02%     -    0s
     0     0  565.25574    0   35  565.37254  565.25574  0.02%     -    0s
     0     0  565.25574    0   38  565.37254  565.25574  0.02%     -    0s
     0     0  565.25574    0   40  565.37254  565.25574  0.02%     -    0s
     0     0  565.25574    0   40  565.37254  565.25574  0.02%     -    0s
     0     0  565.25574    0   37  565.37254  565.25574  0.02%     -    0s
     0     0  565.25574    0   40  565.37254  565.25574  0.02%     -    0s
     0     0  565.25574    0   41  565.37254  565.25574  0.02%     -    0s
     0     0  565.25574    0   42  565.37254  565.25574  0.02%     -    0s
     0     0  565.25574    0   44  565.37254  565.25574  0.02%     -    0s
     0     0  565.25574    0   45  565.37254  565.25574  0.02%     -    0s
     0     0  565.25574    0   46  565.37254  565.25574  0.02%     -    0s
     0     0  565.25574    0   47  565.37254  565.25574  0.02%     -    0s
     0     0  565.25574    0   46  565.37254  565.25574  0.02%     -    0s
     0     0  565.25574    0   46  565.37254  565.25574  0.02%     -    0s
     0     2  565.25574    0   46  565.37254  565.25574  0.02%     -    0s

Cutting planes:
  Gomory: 5
  MIR: 18
  Zero half: 6
  Mod-K: 1

Explored 40 nodes (2045 simplex iterations) in 0.67 seconds
Thread count was 8 (of 8 available processors)

Solution count 6: 565.373 569.109 573.065 ... 1490.95

Optimal solution found (tolerance 1.00e-04)
Best objective 5.653725416162e+02, best bound 5.653725416162e+02, gap 0.0000%
2 15 14 16 5 17 13 4 25 24
12 23 22
6 8
18 7 19 11 20 10 3 4
Distance: 565.372541616
Execution time:  0.141017783333  minutes
